22
ala2 Ac-Ala-NHMe MMFF (unrelaxed); phi=(1, 3, 4, 6) psi=(3, 4, 6, 8)
C -3.433807 0.358735 0.495203
C -2.175805 -0.447316 0.314832
O -1.962408 -1.477439 0.945972
N -1.299691 0.077873 -0.609273
C 0.052954 -0.458466 -0.709336
C 0.562469 -0.369862 -2.140875
C 0.967238 0.366788 0.217512
O 0.709352 1.529351 0.528676
N 2.124426 -0.282112 0.601759
C 3.029611 0.337010 1.537018
H -4.294011 -0.316387 0.498601
H -3.381397 0.895896 1.445681
H -3.568560 1.079627 -0.316144
H -1.367391 1.079648 -0.756291
H 0.059250 -1.503590 -0.380411
H 0.594886 0.669315 -2.487895
H -0.090295 -0.927632 -2.820746
H 1.574700 -0.778926 -2.225645
H 2.135610 -1.292896 0.540285
H 3.201624 1.381053 1.261659
H 3.973350 -0.212852 1.523326
H 2.587895 0.292183 2.536089
